n = 28;
k = 3;
roles = [
{g, d},
{f, g},
{f, m},
{f, g},
{g, d},
{f, m},
{m, f},
{f, g},
{m, d},
{g, f},
{m, d},
{f, m},
{g, f},
{g, d},
{f, g},
{m, d},
{d, f},
{f, m},
{d, f},
{d, g},
{f, m},
{f, d},
{g, d},
{d, f},
{f, m},
{m, f},
{d, m},
{f, g}
];
num_pairs = 3;
player1 = [22, 9, 19];
player2 = [6, 16, 24];
